p cnf 132 470
3 2 0
3 -2 0
-4 1 0
-4 3 0
-1 -3 4 0
6 -4 0
6 -5 0
4 5 -6 0
-8 6 0
-8 7 0
-6 -7 8 0
-9 8 0
-9 -7 0
-8 7 9 0
11 -10 0
11 -7 0
10 7 -11 0
14 12 0
14 13 0
-12 -13 -14 0
-16 14 0
-16 15 0
-14 -15 16 0
16 7 -17 0
-16 -7 -17 0
16 -7 17 0
-16 7 17 0
18 11 0
18 17 0
-11 -17 -18 0
4 -19 0
-4 -19 0
-12 20 0
12 20 0
22 -21 0
22 -5 0
21 5 -22 0
20 -22 -23 0
-20 22 -23 0
20 22 23 0
-20 -22 23 0
-24 19 0
-24 -23 0
-19 23 24 0
-25 12 0
-25 -14 0
-12 14 25 0
-25 15 -26 0
25 -15 -26 0
-25 -15 26 0
25 15 26 0
27 24 0
27 26 0
-24 -26 -27 0
-28 27 0
-28 -15 0
-27 15 28 0
12 -28 -29 0
-12 28 -29 0
12 28 29 0
-12 -28 29 0
31 -30 0
31 -11 0
30 11 -31 0
32 -31 0
32 -5 0
31 5 -32 0
33 2 0
33 -26 0
-2 26 -33 0
35 -11 0
35 10 0
11 -10 -35 0
34 35 -36 0
-34 -35 -36 0
34 -35 36 0
-34 35 36 0
-37 33 0
-37 36 0
-33 -36 37 0
32 37 -38 0
-32 -37 -38 0
32 -37 38 0
-32 37 38 0
39 -20 0
39 -3 0
20 3 -39 0
31 -17 -40 0
-31 17 -40 0
31 17 40 0
-31 -17 40 0
39 40 -41 0
-39 -40 -41 0
39 -40 41 0
-39 40 41 0
-42 38 0
-42 -41 0
-38 41 42 0
43 -29 0
43 -42 0
29 42 -43 0
-18 43 -44 0
18 -43 -44 0
-18 -43 44 0
18 43 44 0
45 -9 0
45 44 0
9 -44 -45 0
-46 5 0
-46 4 0
-5 -4 46 0
47 11 0
47 -19 0
-11 19 -47 0
46 47 -48 0
-46 -47 -48 0
46 -47 48 0
-46 47 48 0
45 48 -49 0
-45 -48 -49 0
45 -48 49 0
-45 48 49 0
50 19 0
50 16 0
-19 -16 -50 0
-51 -12 0
-51 -13 0
12 13 51 0
-20 51 -52 0
20 -51 -52 0
-20 -51 52 0
20 51 52 0
-53 -21 0
-53 52 0
21 -52 53 0
54 53 0
54 34 0
-53 -34 -54 0
23 10 -55 0
-23 -10 -55 0
23 -10 55 0
-23 10 55 0
-56 -55 0
-56 -46 0
55 46 56 0
57 -56 0
57 13 0
56 -13 -57 0
-54 -57 -58 0
54 57 -58 0
-54 57 58 0
54 -57 58 0
59 19 0
59 -33 0
-19 33 -59 0
-53 -24 -60 0
53 24 -60 0
-53 24 60 0
53 -24 60 0
59 60 -61 0
-59 -60 -61 0
59 -60 61 0
-59 60 61 0
62 -58 0
62 -61 0
58 61 -62 0
50 62 -63 0
-50 -62 -63 0
50 -62 63 0
-50 62 63 0
64 -49 0
64 63 0
49 -63 -64 0
-65 -35 0
-65 1 0
35 -1 65 0
-66 -31 0
-66 -33 0
31 33 66 0
67 65 0
67 66 0
-65 -66 -67 0
-68 -64 0
-68 -67 0
64 67 68 0
52 14 -69 0
-52 -14 -69 0
52 -14 69 0
-52 14 69 0
-71 2 0
-71 30 0
-2 -30 71 0
20 -71 -72 0
-20 71 -72 0
20 71 72 0
-20 -71 72 0
-73 -72 0
-73 -36 0
72 36 73 0
-74 70 0
-74 -73 0
-70 73 74 0
75 27 0
75 12 0
-27 -12 -75 0
76 -74 0
76 75 0
74 -75 -76 0
-69 76 -77 0
69 -76 -77 0
-69 -76 77 0
69 76 77 0
-78 21 0
-78 -13 0
-21 13 78 0
79 -77 0
79 -78 0
77 78 -79 0
-80 -7 0
-80 -10 0
7 10 80 0
81 80 0
81 46 0
-80 -46 -81 0
81 -52 -82 0
-81 52 -82 0
81 52 82 0
-81 -52 82 0
83 79 0
83 -82 0
-79 82 -83 0
85 -59 0
85 84 0
59 -84 -85 0
-86 7 0
-86 85 0
-7 -85 86 0
-87 20 0
-87 84 0
-20 -84 87 0
-87 -72 -88 0
87 72 -88 0
-87 72 88 0
87 -72 88 0
86 -88 -89 0
-86 88 -89 0
86 88 89 0
-86 -88 89 0
90 53 0
90 33 0
-53 -33 -90 0
-91 3 0
-91 -51 0
-3 51 91 0
-92 -90 0
-92 91 0
90 -91 92 0
-23 93 -94 0
23 -93 -94 0
-23 -93 94 0
23 93 94 0
46 -94 -95 0
-46 94 -95 0
46 94 95 0
-46 -94 95 0
95 22 -96 0
-95 -22 -96 0
95 -22 96 0
-95 22 96 0
92 -96 -97 0
-92 96 -97 0
92 96 97 0
-92 -96 97 0
55 -98 0
-55 -98 0
-97 -98 -99 0
97 98 -99 0
-97 98 99 0
97 -98 99 0
100 -89 0
100 -99 0
89 99 -100 0
101 -83 0
101 -100 0
83 100 -101 0
-52 -33 -102 0
52 33 -102 0
-52 33 102 0
52 -33 102 0
-103 31 0
-103 -51 0
-31 51 103 0
-104 102 0
-104 -103 0
-102 103 104 0
105 -94 0
105 21 0
94 -21 -105 0
-5 -22 -106 0
5 22 -106 0
-5 22 106 0
5 -22 106 0
107 -105 0
107 -106 0
105 106 -107 0
-108 -16 0
-108 -107 0
16 107 108 0
-73 -87 -109 0
73 87 -109 0
-73 87 109 0
73 -87 109 0
110 108 0
110 109 0
-108 -109 -110 0
-111 104 0
-111 -110 0
-104 110 111 0
112 101 0
112 -111 0
-101 111 -112 0
-71 5 -113 0
71 -5 -113 0
-71 -5 113 0
71 5 113 0
-114 -23 0
-114 22 0
23 -22 114 0
-6 -10 -115 0
6 10 -115 0
-6 10 115 0
6 -10 115 0
116 114 0
116 -115 0
-114 115 -116 0
-20 -33 -117 0
20 33 -117 0
-20 33 117 0
20 -33 117 0
118 116 0
118 -117 0
-116 117 -118 0
119 -113 0
119 -118 0
113 118 -119 0
120 -112 0
120 -119 0
112 119 -120 0
-121 68 0
-121 120 0
-68 -120 121 0
-122 5 0
-122 11 0
-5 -11 122 0
16 -2 -123 0
-16 2 -123 0
16 2 123 0
-16 -2 123 0
-55 123 -124 0
55 -123 -124 0
-55 -123 124 0
55 123 124 0
-122 -124 -125 0
122 124 -125 0
-122 124 125 0
122 -124 125 0
126 24 0
126 -5 0
-24 5 -126 0
-127 94 0
-127 93 0
-94 -93 127 0
126 127 -128 0
-126 -127 -128 0
126 -127 128 0
-126 127 128 0
129 2 0
129 -55 0
-2 55 -129 0
-128 -129 -130 0
128 129 -130 0
-128 129 130 0
128 -129 130 0
125 -130 -131 0
-125 130 -131 0
125 130 131 0
-125 -130 131 0
-121 -131 -132 0
121 131 -132 0
-121 131 132 0
121 -131 132 0
54 -96 -20 121 -119 0
-5 120 11 -19 -33 0
-3 -44 123 -23 33 -17 0
-18 -109 82 0
-71 -24 0
-24 -129 0
-35 -4 114 -76 -39 -99 0
-46 25 60 -53 79 -50 0
12 -19 119 0
81 38 -93 0
44 -5 36 0
-52 125 -60 0
67 19 0
-87 -79 -44 11 0
100 -74 -25 0
20 91 0
12 64 94 62 -93 9 0
16 128 0
-86 14 78 -30 88 24 0
-23 -113 5 0
78 41 20 10 -107 0
-19 -32 -113 0
82 17 0
-92 -80 125 0
-13 120 58 -70 0
29 -115 0
57 -47 -127 31 118 -17 0
-98 69 97 -8 42 0
64 -92 -40 -69 -80 -83 0
44 9 -88 34 -29 -16 0
74 103 0
98 -49 -41 0
-33 11 85 -115 -55 100 0
-50 95 123 27 0
-121 116 88 -11 0
-78 36 83 -107 58 55 0
-121 -42 -35 0
-118 66 0
-130 91 22 -122 78 0
108 113 123 45 88 0
132 2 0
4 -71 104 0
37 -30 95 80 62 23 0
43 -61 0
16 40 0
-64 -51 -126 0
101 -119 109 -117 104 -47 0
61 60 -84 -43 79 0
83 -123 95 -26 -114 86 0
64 -47 0
-65 -117 42 0
120 -16 0
-127 -128 -27 0
-115 48 -120 -54 0
8 98 -109 0
44 -96 119 106 -43 -118 0
-49 -42 56 123 20 0
-98 -132 -108 -11 -100 0
123 -84 0
-76 -39 29 -126 31 -24 0
70 129 -122 -4 69 0
-79 59 53 52 0
-124 -29 -17 -91 11 0
-51 79 37 109 -59 0
68 87 117 -84 -107 -4 0
-61 82 -34 0
-9 22 40 0
-103 -52 80 -115 -15 0
-128 -52 111 72 -83 0
8 54 -10 0
-110 85 131 68 70 0
57 -9 67 -38 -19 0
110 -63 29 2 -46 102 0
-33 115 20 -121 82 -23 0
72 17 56 0
121 116 76 73 0
65 6 -35 0
-66 -49 100 0
132 0
